13
0 82 15 4 95 36 32 29 18 95 14 87 95
82 0 70 12 76 55 5 4 12 28 30 65 78
15 70 0 4 72 26 92 84 90 70 54 29 58
4 12 4 0 76 36 1 98 21 90 55 44 36
95 76 72 76 0 20 28 98 44 14 12 49 13
36 55 26 36 20 0 46 45 78 34 6 94 59
32 5 92 1 28 46 0 69 16 49 11 71 38
29 4 84 98 98 45 69 0 81 80 47 74 25
18 12 90 21 44 78 16 81 0 91 9 6 85
95 28 70 90 14 34 49 80 91 0 30 99 38
14 30 54 55 12 6 11 47 9 30 0 11 30
87 65 29 44 49 94 71 74 6 99 11 0 13
95 78 58 36 13 59 38 25 85 38 30 13 0
